(set-logic QF_LRA)
(declare-fun X0 () Real )
(declare-fun Y0 () Real )
(declare-fun X1 () Real )
(declare-fun Y1 () Real )
(declare-fun X2 () Real )
(declare-fun Y2 () Real )
(declare-fun X3 () Real )
(declare-fun Y3 () Real )
(declare-fun X4 () Real )
(declare-fun Y4 () Real )
(declare-fun X5 () Real )
(declare-fun Y5 () Real )
(declare-fun X6 () Real )
(declare-fun Y6 () Real )
(declare-fun X7 () Real )
(declare-fun Y7 () Real )
(declare-fun X8 () Real )
(declare-fun Y8 () Real )
(declare-fun X9 () Real )
(declare-fun Y9 () Real )
(declare-fun X10 () Real )
(declare-fun Y10 () Real )
(declare-fun X11 () Real )
(declare-fun Y11 () Real )
(declare-fun X12 () Real )
(declare-fun Y12 () Real )
(declare-fun X13 () Real )
(declare-fun Y13 () Real )
(declare-fun X14 () Real )
(declare-fun Y14 () Real )
(declare-fun Z () Real )
(declare-fun k () Real )
(assert (let
(( $goal (>= Z k) ))
(let
((
$phi ( and 
( or ( <= ( + X0 17 ) X1 )  ( <= ( + X1 30 ) X0 )  ( <= ( + Y0 64 ) Y1 )  ( <= ( + Y1 8 ) Y0 )  )
( or ( <= ( + X0 17 ) X2 )  ( <= ( + X2 5 ) X0 )  ( <= ( + Y0 64 ) Y2 )  ( <= ( + Y2 39 ) Y0 )  )
( or ( <= ( + X0 17 ) X3 )  ( <= ( + X3 29 ) X0 )  ( <= ( + Y0 64 ) Y3 )  ( <= ( + Y3 79 ) Y0 )  )
( or ( <= ( + X0 17 ) X4 )  ( <= ( + X4 51 ) X0 )  ( <= ( + Y0 64 ) Y4 )  ( <= ( + Y4 27 ) Y0 )  )
( or ( <= ( + X0 17 ) X5 )  ( <= ( + X5 74 ) X0 )  ( <= ( + Y0 64 ) Y5 )  ( <= ( + Y5 96 ) Y0 )  )
( or ( <= ( + X0 17 ) X6 )  ( <= ( + X6 34 ) X0 )  ( <= ( + Y0 64 ) Y6 )  ( <= ( + Y6 58 ) Y0 )  )
( or ( <= ( + X0 17 ) X7 )  ( <= ( + X7 20 ) X0 )  ( <= ( + Y0 64 ) Y7 )  ( <= ( + Y7 23 ) Y0 )  )
( or ( <= ( + X0 17 ) X8 )  ( <= ( + X8 89 ) X0 )  ( <= ( + Y0 64 ) Y8 )  ( <= ( + Y8 75 ) Y0 )  )
( or ( <= ( + X0 17 ) X9 )  ( <= ( + X9 71 ) X0 )  ( <= ( + Y0 64 ) Y9 )  ( <= ( + Y9 50 ) Y0 )  )
( or ( <= ( + X0 17 ) X10 )  ( <= ( + X10 3 ) X0 )  ( <= ( + Y0 64 ) Y10 )  ( <= ( + Y10 46 ) Y0 )  )
( or ( <= ( + X0 17 ) X11 )  ( <= ( + X11 52 ) X0 )  ( <= ( + Y0 64 ) Y11 )  ( <= ( + Y11 25 ) Y0 )  )
( or ( <= ( + X0 17 ) X12 )  ( <= ( + X12 40 ) X0 )  ( <= ( + Y0 64 ) Y12 )  ( <= ( + Y12 67 ) Y0 )  )
( or ( <= ( + X0 17 ) X13 )  ( <= ( + X13 55 ) X0 )  ( <= ( + Y0 64 ) Y13 )  ( <= ( + Y13 19 ) Y0 )  )
( or ( <= ( + X0 17 ) X14 )  ( <= ( + X14 68 ) X0 )  ( <= ( + Y0 64 ) Y14 )  ( <= ( + Y14 63 ) Y0 )  )
( or ( <= ( + X1 30 ) X2 )  ( <= ( + X2 5 ) X1 )  ( <= ( + Y1 8 ) Y2 )  ( <= ( + Y2 39 ) Y1 )  )
( or ( <= ( + X1 30 ) X3 )  ( <= ( + X3 29 ) X1 )  ( <= ( + Y1 8 ) Y3 )  ( <= ( + Y3 79 ) Y1 )  )
( or ( <= ( + X1 30 ) X4 )  ( <= ( + X4 51 ) X1 )  ( <= ( + Y1 8 ) Y4 )  ( <= ( + Y4 27 ) Y1 )  )
( or ( <= ( + X1 30 ) X5 )  ( <= ( + X5 74 ) X1 )  ( <= ( + Y1 8 ) Y5 )  ( <= ( + Y5 96 ) Y1 )  )
( or ( <= ( + X1 30 ) X6 )  ( <= ( + X6 34 ) X1 )  ( <= ( + Y1 8 ) Y6 )  ( <= ( + Y6 58 ) Y1 )  )
( or ( <= ( + X1 30 ) X7 )  ( <= ( + X7 20 ) X1 )  ( <= ( + Y1 8 ) Y7 )  ( <= ( + Y7 23 ) Y1 )  )
( or ( <= ( + X1 30 ) X8 )  ( <= ( + X8 89 ) X1 )  ( <= ( + Y1 8 ) Y8 )  ( <= ( + Y8 75 ) Y1 )  )
( or ( <= ( + X1 30 ) X9 )  ( <= ( + X9 71 ) X1 )  ( <= ( + Y1 8 ) Y9 )  ( <= ( + Y9 50 ) Y1 )  )
( or ( <= ( + X1 30 ) X10 )  ( <= ( + X10 3 ) X1 )  ( <= ( + Y1 8 ) Y10 )  ( <= ( + Y10 46 ) Y1 )  )
( or ( <= ( + X1 30 ) X11 )  ( <= ( + X11 52 ) X1 )  ( <= ( + Y1 8 ) Y11 )  ( <= ( + Y11 25 ) Y1 )  )
( or ( <= ( + X1 30 ) X12 )  ( <= ( + X12 40 ) X1 )  ( <= ( + Y1 8 ) Y12 )  ( <= ( + Y12 67 ) Y1 )  )
( or ( <= ( + X1 30 ) X13 )  ( <= ( + X13 55 ) X1 )  ( <= ( + Y1 8 ) Y13 )  ( <= ( + Y13 19 ) Y1 )  )
( or ( <= ( + X1 30 ) X14 )  ( <= ( + X14 68 ) X1 )  ( <= ( + Y1 8 ) Y14 )  ( <= ( + Y14 63 ) Y1 )  )
( or ( <= ( + X2 5 ) X3 )  ( <= ( + X3 29 ) X2 )  ( <= ( + Y2 39 ) Y3 )  ( <= ( + Y3 79 ) Y2 )  )
( or ( <= ( + X2 5 ) X4 )  ( <= ( + X4 51 ) X2 )  ( <= ( + Y2 39 ) Y4 )  ( <= ( + Y4 27 ) Y2 )  )
( or ( <= ( + X2 5 ) X5 )  ( <= ( + X5 74 ) X2 )  ( <= ( + Y2 39 ) Y5 )  ( <= ( + Y5 96 ) Y2 )  )
( or ( <= ( + X2 5 ) X6 )  ( <= ( + X6 34 ) X2 )  ( <= ( + Y2 39 ) Y6 )  ( <= ( + Y6 58 ) Y2 )  )
( or ( <= ( + X2 5 ) X7 )  ( <= ( + X7 20 ) X2 )  ( <= ( + Y2 39 ) Y7 )  ( <= ( + Y7 23 ) Y2 )  )
( or ( <= ( + X2 5 ) X8 )  ( <= ( + X8 89 ) X2 )  ( <= ( + Y2 39 ) Y8 )  ( <= ( + Y8 75 ) Y2 )  )
( or ( <= ( + X2 5 ) X9 )  ( <= ( + X9 71 ) X2 )  ( <= ( + Y2 39 ) Y9 )  ( <= ( + Y9 50 ) Y2 )  )
( or ( <= ( + X2 5 ) X10 )  ( <= ( + X10 3 ) X2 )  ( <= ( + Y2 39 ) Y10 )  ( <= ( + Y10 46 ) Y2 )  )
( or ( <= ( + X2 5 ) X11 )  ( <= ( + X11 52 ) X2 )  ( <= ( + Y2 39 ) Y11 )  ( <= ( + Y11 25 ) Y2 )  )
( or ( <= ( + X2 5 ) X12 )  ( <= ( + X12 40 ) X2 )  ( <= ( + Y2 39 ) Y12 )  ( <= ( + Y12 67 ) Y2 )  )
( or ( <= ( + X2 5 ) X13 )  ( <= ( + X13 55 ) X2 )  ( <= ( + Y2 39 ) Y13 )  ( <= ( + Y13 19 ) Y2 )  )
( or ( <= ( + X2 5 ) X14 )  ( <= ( + X14 68 ) X2 )  ( <= ( + Y2 39 ) Y14 )  ( <= ( + Y14 63 ) Y2 )  )
( or ( <= ( + X3 29 ) X4 )  ( <= ( + X4 51 ) X3 )  ( <= ( + Y3 79 ) Y4 )  ( <= ( + Y4 27 ) Y3 )  )
( or ( <= ( + X3 29 ) X5 )  ( <= ( + X5 74 ) X3 )  ( <= ( + Y3 79 ) Y5 )  ( <= ( + Y5 96 ) Y3 )  )
( or ( <= ( + X3 29 ) X6 )  ( <= ( + X6 34 ) X3 )  ( <= ( + Y3 79 ) Y6 )  ( <= ( + Y6 58 ) Y3 )  )
( or ( <= ( + X3 29 ) X7 )  ( <= ( + X7 20 ) X3 )  ( <= ( + Y3 79 ) Y7 )  ( <= ( + Y7 23 ) Y3 )  )
( or ( <= ( + X3 29 ) X8 )  ( <= ( + X8 89 ) X3 )  ( <= ( + Y3 79 ) Y8 )  ( <= ( + Y8 75 ) Y3 )  )
( or ( <= ( + X3 29 ) X9 )  ( <= ( + X9 71 ) X3 )  ( <= ( + Y3 79 ) Y9 )  ( <= ( + Y9 50 ) Y3 )  )
( or ( <= ( + X3 29 ) X10 )  ( <= ( + X10 3 ) X3 )  ( <= ( + Y3 79 ) Y10 )  ( <= ( + Y10 46 ) Y3 )  )
( or ( <= ( + X3 29 ) X11 )  ( <= ( + X11 52 ) X3 )  ( <= ( + Y3 79 ) Y11 )  ( <= ( + Y11 25 ) Y3 )  )
( or ( <= ( + X3 29 ) X12 )  ( <= ( + X12 40 ) X3 )  ( <= ( + Y3 79 ) Y12 )  ( <= ( + Y12 67 ) Y3 )  )
( or ( <= ( + X3 29 ) X13 )  ( <= ( + X13 55 ) X3 )  ( <= ( + Y3 79 ) Y13 )  ( <= ( + Y13 19 ) Y3 )  )
( or ( <= ( + X3 29 ) X14 )  ( <= ( + X14 68 ) X3 )  ( <= ( + Y3 79 ) Y14 )  ( <= ( + Y14 63 ) Y3 )  )
( or ( <= ( + X4 51 ) X5 )  ( <= ( + X5 74 ) X4 )  ( <= ( + Y4 27 ) Y5 )  ( <= ( + Y5 96 ) Y4 )  )
( or ( <= ( + X4 51 ) X6 )  ( <= ( + X6 34 ) X4 )  ( <= ( + Y4 27 ) Y6 )  ( <= ( + Y6 58 ) Y4 )  )
( or ( <= ( + X4 51 ) X7 )  ( <= ( + X7 20 ) X4 )  ( <= ( + Y4 27 ) Y7 )  ( <= ( + Y7 23 ) Y4 )  )
( or ( <= ( + X4 51 ) X8 )  ( <= ( + X8 89 ) X4 )  ( <= ( + Y4 27 ) Y8 )  ( <= ( + Y8 75 ) Y4 )  )
( or ( <= ( + X4 51 ) X9 )  ( <= ( + X9 71 ) X4 )  ( <= ( + Y4 27 ) Y9 )  ( <= ( + Y9 50 ) Y4 )  )
( or ( <= ( + X4 51 ) X10 )  ( <= ( + X10 3 ) X4 )  ( <= ( + Y4 27 ) Y10 )  ( <= ( + Y10 46 ) Y4 )  )
( or ( <= ( + X4 51 ) X11 )  ( <= ( + X11 52 ) X4 )  ( <= ( + Y4 27 ) Y11 )  ( <= ( + Y11 25 ) Y4 )  )
( or ( <= ( + X4 51 ) X12 )  ( <= ( + X12 40 ) X4 )  ( <= ( + Y4 27 ) Y12 )  ( <= ( + Y12 67 ) Y4 )  )
( or ( <= ( + X4 51 ) X13 )  ( <= ( + X13 55 ) X4 )  ( <= ( + Y4 27 ) Y13 )  ( <= ( + Y13 19 ) Y4 )  )
( or ( <= ( + X4 51 ) X14 )  ( <= ( + X14 68 ) X4 )  ( <= ( + Y4 27 ) Y14 )  ( <= ( + Y14 63 ) Y4 )  )
( or ( <= ( + X5 74 ) X6 )  ( <= ( + X6 34 ) X5 )  ( <= ( + Y5 96 ) Y6 )  ( <= ( + Y6 58 ) Y5 )  )
( or ( <= ( + X5 74 ) X7 )  ( <= ( + X7 20 ) X5 )  ( <= ( + Y5 96 ) Y7 )  ( <= ( + Y7 23 ) Y5 )  )
( or ( <= ( + X5 74 ) X8 )  ( <= ( + X8 89 ) X5 )  ( <= ( + Y5 96 ) Y8 )  ( <= ( + Y8 75 ) Y5 )  )
( or ( <= ( + X5 74 ) X9 )  ( <= ( + X9 71 ) X5 )  ( <= ( + Y5 96 ) Y9 )  ( <= ( + Y9 50 ) Y5 )  )
( or ( <= ( + X5 74 ) X10 )  ( <= ( + X10 3 ) X5 )  ( <= ( + Y5 96 ) Y10 )  ( <= ( + Y10 46 ) Y5 )  )
( or ( <= ( + X5 74 ) X11 )  ( <= ( + X11 52 ) X5 )  ( <= ( + Y5 96 ) Y11 )  ( <= ( + Y11 25 ) Y5 )  )
( or ( <= ( + X5 74 ) X12 )  ( <= ( + X12 40 ) X5 )  ( <= ( + Y5 96 ) Y12 )  ( <= ( + Y12 67 ) Y5 )  )
( or ( <= ( + X5 74 ) X13 )  ( <= ( + X13 55 ) X5 )  ( <= ( + Y5 96 ) Y13 )  ( <= ( + Y13 19 ) Y5 )  )
( or ( <= ( + X5 74 ) X14 )  ( <= ( + X14 68 ) X5 )  ( <= ( + Y5 96 ) Y14 )  ( <= ( + Y14 63 ) Y5 )  )
( or ( <= ( + X6 34 ) X7 )  ( <= ( + X7 20 ) X6 )  ( <= ( + Y6 58 ) Y7 )  ( <= ( + Y7 23 ) Y6 )  )
( or ( <= ( + X6 34 ) X8 )  ( <= ( + X8 89 ) X6 )  ( <= ( + Y6 58 ) Y8 )  ( <= ( + Y8 75 ) Y6 )  )
( or ( <= ( + X6 34 ) X9 )  ( <= ( + X9 71 ) X6 )  ( <= ( + Y6 58 ) Y9 )  ( <= ( + Y9 50 ) Y6 )  )
( or ( <= ( + X6 34 ) X10 )  ( <= ( + X10 3 ) X6 )  ( <= ( + Y6 58 ) Y10 )  ( <= ( + Y10 46 ) Y6 )  )
( or ( <= ( + X6 34 ) X11 )  ( <= ( + X11 52 ) X6 )  ( <= ( + Y6 58 ) Y11 )  ( <= ( + Y11 25 ) Y6 )  )
( or ( <= ( + X6 34 ) X12 )  ( <= ( + X12 40 ) X6 )  ( <= ( + Y6 58 ) Y12 )  ( <= ( + Y12 67 ) Y6 )  )
( or ( <= ( + X6 34 ) X13 )  ( <= ( + X13 55 ) X6 )  ( <= ( + Y6 58 ) Y13 )  ( <= ( + Y13 19 ) Y6 )  )
( or ( <= ( + X6 34 ) X14 )  ( <= ( + X14 68 ) X6 )  ( <= ( + Y6 58 ) Y14 )  ( <= ( + Y14 63 ) Y6 )  )
( or ( <= ( + X7 20 ) X8 )  ( <= ( + X8 89 ) X7 )  ( <= ( + Y7 23 ) Y8 )  ( <= ( + Y8 75 ) Y7 )  )
( or ( <= ( + X7 20 ) X9 )  ( <= ( + X9 71 ) X7 )  ( <= ( + Y7 23 ) Y9 )  ( <= ( + Y9 50 ) Y7 )  )
( or ( <= ( + X7 20 ) X10 )  ( <= ( + X10 3 ) X7 )  ( <= ( + Y7 23 ) Y10 )  ( <= ( + Y10 46 ) Y7 )  )
( or ( <= ( + X7 20 ) X11 )  ( <= ( + X11 52 ) X7 )  ( <= ( + Y7 23 ) Y11 )  ( <= ( + Y11 25 ) Y7 )  )
( or ( <= ( + X7 20 ) X12 )  ( <= ( + X12 40 ) X7 )  ( <= ( + Y7 23 ) Y12 )  ( <= ( + Y12 67 ) Y7 )  )
( or ( <= ( + X7 20 ) X13 )  ( <= ( + X13 55 ) X7 )  ( <= ( + Y7 23 ) Y13 )  ( <= ( + Y13 19 ) Y7 )  )
( or ( <= ( + X7 20 ) X14 )  ( <= ( + X14 68 ) X7 )  ( <= ( + Y7 23 ) Y14 )  ( <= ( + Y14 63 ) Y7 )  )
( or ( <= ( + X8 89 ) X9 )  ( <= ( + X9 71 ) X8 )  ( <= ( + Y8 75 ) Y9 )  ( <= ( + Y9 50 ) Y8 )  )
( or ( <= ( + X8 89 ) X10 )  ( <= ( + X10 3 ) X8 )  ( <= ( + Y8 75 ) Y10 )  ( <= ( + Y10 46 ) Y8 )  )
( or ( <= ( + X8 89 ) X11 )  ( <= ( + X11 52 ) X8 )  ( <= ( + Y8 75 ) Y11 )  ( <= ( + Y11 25 ) Y8 )  )
( or ( <= ( + X8 89 ) X12 )  ( <= ( + X12 40 ) X8 )  ( <= ( + Y8 75 ) Y12 )  ( <= ( + Y12 67 ) Y8 )  )
( or ( <= ( + X8 89 ) X13 )  ( <= ( + X13 55 ) X8 )  ( <= ( + Y8 75 ) Y13 )  ( <= ( + Y13 19 ) Y8 )  )
( or ( <= ( + X8 89 ) X14 )  ( <= ( + X14 68 ) X8 )  ( <= ( + Y8 75 ) Y14 )  ( <= ( + Y14 63 ) Y8 )  )
( or ( <= ( + X9 71 ) X10 )  ( <= ( + X10 3 ) X9 )  ( <= ( + Y9 50 ) Y10 )  ( <= ( + Y10 46 ) Y9 )  )
( or ( <= ( + X9 71 ) X11 )  ( <= ( + X11 52 ) X9 )  ( <= ( + Y9 50 ) Y11 )  ( <= ( + Y11 25 ) Y9 )  )
( or ( <= ( + X9 71 ) X12 )  ( <= ( + X12 40 ) X9 )  ( <= ( + Y9 50 ) Y12 )  ( <= ( + Y12 67 ) Y9 )  )
( or ( <= ( + X9 71 ) X13 )  ( <= ( + X13 55 ) X9 )  ( <= ( + Y9 50 ) Y13 )  ( <= ( + Y13 19 ) Y9 )  )
( or ( <= ( + X9 71 ) X14 )  ( <= ( + X14 68 ) X9 )  ( <= ( + Y9 50 ) Y14 )  ( <= ( + Y14 63 ) Y9 )  )
( or ( <= ( + X10 3 ) X11 )  ( <= ( + X11 52 ) X10 )  ( <= ( + Y10 46 ) Y11 )  ( <= ( + Y11 25 ) Y10 )  )
( or ( <= ( + X10 3 ) X12 )  ( <= ( + X12 40 ) X10 )  ( <= ( + Y10 46 ) Y12 )  ( <= ( + Y12 67 ) Y10 )  )
( or ( <= ( + X10 3 ) X13 )  ( <= ( + X13 55 ) X10 )  ( <= ( + Y10 46 ) Y13 )  ( <= ( + Y13 19 ) Y10 )  )
( or ( <= ( + X10 3 ) X14 )  ( <= ( + X14 68 ) X10 )  ( <= ( + Y10 46 ) Y14 )  ( <= ( + Y14 63 ) Y10 )  )
( or ( <= ( + X11 52 ) X12 )  ( <= ( + X12 40 ) X11 )  ( <= ( + Y11 25 ) Y12 )  ( <= ( + Y12 67 ) Y11 )  )
( or ( <= ( + X11 52 ) X13 )  ( <= ( + X13 55 ) X11 )  ( <= ( + Y11 25 ) Y13 )  ( <= ( + Y13 19 ) Y11 )  )
( or ( <= ( + X11 52 ) X14 )  ( <= ( + X14 68 ) X11 )  ( <= ( + Y11 25 ) Y14 )  ( <= ( + Y14 63 ) Y11 )  )
( or ( <= ( + X12 40 ) X13 )  ( <= ( + X13 55 ) X12 )  ( <= ( + Y12 67 ) Y13 )  ( <= ( + Y13 19 ) Y12 )  )
( or ( <= ( + X12 40 ) X14 )  ( <= ( + X14 68 ) X12 )  ( <= ( + Y12 67 ) Y14 )  ( <= ( + Y14 63 ) Y12 )  )
( or ( <= ( + X13 55 ) X14 )  ( <= ( + X14 68 ) X13 )  ( <= ( + Y13 19 ) Y14 )  ( <= ( + Y14 63 ) Y13 )  )
( >= X0 0)
( <= ( + X0 17) Z)
( >= Y0 0)
( <= ( + Y0 64 ) 100)
( >= X1 0)
( <= ( + X1 30) Z)
( >= Y1 0)
( <= ( + Y1 8 ) 100)
( >= X2 0)
( <= ( + X2 5) Z)
( >= Y2 0)
( <= ( + Y2 39 ) 100)
( >= X3 0)
( <= ( + X3 29) Z)
( >= Y3 0)
( <= ( + Y3 79 ) 100)
( >= X4 0)
( <= ( + X4 51) Z)
( >= Y4 0)
( <= ( + Y4 27 ) 100)
( >= X5 0)
( <= ( + X5 74) Z)
( >= Y5 0)
( <= ( + Y5 96 ) 100)
( >= X6 0)
( <= ( + X6 34) Z)
( >= Y6 0)
( <= ( + Y6 58 ) 100)
( >= X7 0)
( <= ( + X7 20) Z)
( >= Y7 0)
( <= ( + Y7 23 ) 100)
( >= X8 0)
( <= ( + X8 89) Z)
( >= Y8 0)
( <= ( + Y8 75 ) 100)
( >= X9 0)
( <= ( + X9 71) Z)
( >= Y9 0)
( <= ( + Y9 50 ) 100)
( >= X10 0)
( <= ( + X10 3) Z)
( >= Y10 0)
( <= ( + Y10 46 ) 100)
( >= X11 0)
( <= ( + X11 52) Z)
( >= Y11 0)
( <= ( + Y11 25 ) 100)
( >= X12 0)
( <= ( + X12 40) Z)
( >= Y12 0)
( <= ( + Y12 67 ) 100)
( >= X13 0)
( <= ( + X13 55) Z)
( >= Y13 0)
( <= ( + Y13 19 ) 100)
( >= X14 0)
( <= ( + X14 68) Z)
( >= Y14 0)
( <= ( + Y14 63 ) 100)
) )
)(=> $phi $goal))))